(set-info :source |printed by MathSAT|)
(declare-fun |f::n__param__@2| () (_ BitVec 32))
(declare-fun |f::n@2| () (_ BitVec 32))
(declare-fun |f::n__param__@3| () (_ BitVec 32))
(declare-fun |f::n@3| () (_ BitVec 32))
(declare-fun |f::n__param__@4| () (_ BitVec 32))
(declare-fun |f::n@4| () (_ BitVec 32))
(assert (let ((.def_13 (= |f::n__param__@2| |f::n@2|)))(let ((.def_11 (= |f::n__param__@2| (_ bv4 32))))(let ((.def_68 (and .def_11 .def_13)))(let ((.def_15 (bvslt (_ bv2 32) |f::n@2|)))(let ((.def_69 (and .def_15 .def_68)))(let ((.def_24 (bvadd (_ bv4294967295 32) |f::n@2|)))(let ((.def_26 (= .def_24 |f::n__param__@3|)))(let ((.def_70 (and .def_26 .def_69)))(let ((.def_52 (= |f::n__param__@3| |f::n@3|)))(let ((.def_71 (and .def_52 .def_70)))(let ((.def_53 (bvslt (_ bv2 32) |f::n@3|)))(let ((.def_72 (and .def_53 .def_71)))(let ((.def_58 (bvadd (_ bv4294967295 32) |f::n@3|)))(let ((.def_60 (= .def_58 |f::n__param__@4|)))(let ((.def_73 (and .def_60 .def_72)))(let ((.def_62 (= |f::n__param__@4| |f::n@4|)))(let ((.def_74 (and .def_62 .def_73)))(let ((.def_63 (bvslt (_ bv2 32) |f::n@4|)))(let ((.def_65 (not .def_63)))(let ((.def_75 (and .def_65 .def_74))).def_75)))))))))))))))))))))